File: D:\ML4VRP2024\Instances\CVRP\json\X-n190-k8.json exists.
Route #1: 184 1 133 46 135 121 69 55 23 113 91 59 96 9 114 27 187 124 
Route #2: 29 83 127 44 159 142 104 89 109 35 81 68 130 56 8 100 42 48 54 126 76 185 18 40 61 180 32 6 2 
Route #3: 182 160 165 88 103 92 145 115 144 94 50 21 178 179 62 90 3 15 
Route #4: 172 120 168 4 34 73 112 169 80 78 150 147 24 12 86 125 176 5 47 101 71 146 186 87 152 98 97 
Route #5: 37 118 131 31 45 99 14 16 170 67 166 51 157 173 132 134 155 17 79 116 60 122 11 175 7 82 
Route #6: 102 10 43 58 28 138 85 30 39 36 38 22 77 137 151 174 41 181 70 141 84 153 
Route #7: 105 19 188 57 63 13 171 110 66 64 163 128 95 25 143 183 136 167 123 177 52 148 117 26 49 119 106 
Route #8: 149 139 72 156 129 108 93 75 158 164 111 74 161 107 33 162 20 65 53 189 154 140 
